SCIP version 0.82 [precision: 8 byte] [memory: block] [mode: optimized] [LP solver: SOPLEX 1.3.0]
Copyright (c) 2002-2006 Konrad-Zuse-Zentrum fuer Informationstechnik Berlin (ZIB)

reading parameter file <scip.set>

read problem </ufs/psxjm3/instances/random_8.ctt.et.zpl>
============

****************************************************
* Zuse Institute Mathematical Programming Language *
* Release 2.04  Copyright (C)2005 by Thorsten Koch *
****************************************************

original problem has 46956 variables (46855 bin, 101 int, 0 impl, 0 cont) and 12610 constraints

solve problem
=============

LP Solver <SOPLEX 1.3.0>: dual feasibility tolerance cannot be set -- tolerance of SCIP and LP solver may differ
LP Solver <SOPLEX 1.3.0>: barrier convergence tolerance cannot be set -- tolerance of SCIP and LP solver may differ
LP Solver <SOPLEX 1.3.0>: fastmip setting not available -- SCIP parameter has no effect
LP Solver <SOPLEX 1.3.0>: scaling not available -- SCIP parameter has no effect
LP Solver <SOPLEX 1.3.0>: presolving not available -- SCIP parameter has no effect
transformed problem has 46956 variables (46855 bin, 101 int, 0 impl, 0 cont) and 12610 constraints
  12610 constraints of type <linear>

presolving:
(round 1) 6235 del vars, 463 del conss, 6235 chg bounds, 0 chg sides, 0 chg coeffs, 0 upgd conss, 0 impls, 6177 clqs
(round 2) 6235 del vars, 907 del conss, 6235 chg bounds, 0 chg sides, 0 chg coeffs, 0 upgd conss, 0 impls, 6177 clqs
(round 3) 6235 del vars, 3694 del conss, 6235 chg bounds, 2790 chg sides, 0 chg coeffs, 0 upgd conss, 0 impls, 6177 clqs
(round 4) 6235 del vars, 3694 del conss, 6235 chg bounds, 2790 chg sides, 0 chg coeffs, 8377 upgd conss, 0 impls, 6177 clqs
(round 5) 6235 del vars, 3867 del conss, 6235 chg bounds, 2790 chg sides, 18 chg coeffs, 8377 upgd conss, 0 impls, 6177 clqs
   (174.2s) probing: 100/40620 (0.2%) - 0 fixings, 0 aggregations, 0 implications, 0 bound changes
presolving (6 rounds):
 6235 deleted vars, 3867 deleted constraints, 6235 tightened bounds, 0 added holes, 2790 changed sides, 18 changed coefficients
 0 implications, 6177 cliques
presolved problem has 40721 variables (40620 bin, 101 int, 0 impl, 0 cont) and 8743 constraints
   3750 constraints of type <knapsack>
   3995 constraints of type <setppc>
    539 constraints of type <linear>
    459 constraints of type <logicor>
objective value is always integral
Presolving Time: 172.81

 time | node  | left  |LP iter| mem |mdpt |frac |vars |cons |ccons|cols |rows |cuts |confs|strbr|  dualbound   | primalbound  |  gap   
  263s|     1 |     0 |  8819 | 337M|   0 | 996 |  40k|8743 |8743 |  40k|8743 |   0 |   0 |   0 | 4.110000e+02 |      --      |    Inf 
  328s|     1 |     0 | 13564 | 338M|   0 | 972 |  40k|8743 |8743 |  40k|8749 |   6 |   0 |   0 | 4.110000e+02 |      --      |    Inf 
  363s|     1 |     0 | 16013 | 338M|   0 | 987 |  40k|8743 |8743 |  40k|8756 |  13 |   0 |   0 | 4.110000e+02 |      --      |    Inf 
  425s|     1 |     0 | 20211 | 338M|   0 | 944 |  40k|8743 |8743 |  40k|8762 |  19 |   0 |   0 | 4.110000e+02 |      --      |    Inf 
  455s|     1 |     0 | 22116 | 338M|   0 | 957 |  40k|8743 |8743 |  40k|8770 |  27 |   0 |   0 | 4.110000e+02 |      --      |    Inf 
  487s|     1 |     0 | 24167 | 338M|   0 | 891 |  40k|8743 |8743 |  40k|8776 |  33 |   0 |   0 | 4.110000e+02 |      --      |    Inf 
  511s|     1 |     0 | 25677 | 338M|   0 | 894 |  40k|8743 |8743 |  40k|8783 |  40 |   0 |   0 | 4.110000e+02 |      --      |    Inf 
 1165s|     1 |     2 | 35677 | 339M|   0 | 894 |  40k|8743 |8743 |  40k|8783 |  40 |   0 |  32 | 4.110000e+02 |      --      |    Inf 

SCIP Status        : solving was interrupted [time limit reached]
Solving Time (sec) : 7234.81
Solving Nodes      : 62
Primal Bound       : +1.00000000000000e+20 (0 solutions)
Dual Bound         : +4.11000000000001e+02
Gap                : infinite

primal solution:
================

no solution available

Statistics
==========

SCIP Status        : solving was interrupted [time limit reached]
Solving Time       :    7234.81
Original Problem   :
  Problem name     : random_8.ctt.et.zpl
  Variables        : 46956 (46855 binary, 101 integer, 0 implicit integer, 0 continuous)
  Constraints      : 12610 initial, 12610 maximal
Presolved Problem  :
  Problem name     : t_random_8.ctt.et.zpl
  Variables        : 40721 (40620 binary, 101 integer, 0 implicit integer, 0 continuous)
  Constraints      : 8743 initial, 8743 maximal
Presolvers         :       Time  FixedVars   AggrVars   ChgTypes  ChgBounds   AddHoles    DelCons   ChgSides   ChgCoefs
  trivial          :       0.05          0          0          0          0          0          0          0          0
  inttobinary      :       0.00          0          0          0          0          0          0          0          0
  dualfix          :       0.01          0          0          0          0          0          0          0          0
  implics          :       0.01          0          0          0          0          0          0          0          0
  probing          :       8.22          0          0          0          0          0          0          0          0
  knapsack         :     102.87          0          0          0          0          0          0          0         18
  setppc           :       2.47          0          0          0          0          0        173          0          0
  linear           :      58.13       6235          0          0       6235          0       3694       2790          0
  logicor          :       0.00          0          0          0          0          0          0          0          0
  root node        :          -          0          -          -          0          -          -          -          -
Constraints        :     Number  #Separate #Propagate    #EnfoLP    #EnfoPS    Cutoffs    DomReds       Cuts      Conss   Children
  integral         :          0          0          0         62          0          0          0          0          0        124
  knapsack         :       3750          6        302          0          0          0          0          0          0          0
  setppc           :       3995          6        302          0          0          0       6117          0          0          0
  linear           :        539          6        222          0          0          0          0          0          0          0
  logicor          :        459          6         32          0          0          0          0          0          0          0
Constraint Timings :  TotalTime   Separate  Propagate     EnfoLP     EnfoPS
  integral         :    3697.21       0.00       0.00    3697.21       0.00
  knapsack         :       3.55       3.21       0.34       0.00       0.00
  setppc           :       0.23       0.00       0.23       0.00       0.00
  linear           :       5.72       0.40       5.32       0.00       0.00
  logicor          :       0.01       0.00       0.01       0.00       0.00
Propagators        :       Time      Calls    Cutoffs    DomReds
  rootredcost      :       0.00          0          0          0
  pseudoobj        :       0.00        102          0          0
Conflict Analysis  :       Time      Calls    Success  Conflicts   Literals    Reconvs ReconvLits   LP Iters
  propagation      :       0.00          0          0          0        0.0          0        0.0          -
  infeasible LP    :       0.00          0          0          0        0.0          0        0.0          0
  bound exceed. LP :       0.00          0          0          0        0.0          0        0.0          0
  strong branching :       0.00          0          0          0        0.0          0        0.0          0
  pseudo solution  :       0.00          0          0          0        0.0          0        0.0          -
  applied globally :          -          -          -          0        0.0          -          -          -
  applied locally  :          -          -          -          0        0.0          -          -          -
Separators         :       Time      Calls    Cutoffs    DomReds       Cuts      Conss
  cut pool         :       0.00          5          -          -          0          -    (maximal pool size: 40)
  redcost          :       0.62         67          0          0          0          0
  impliedbounds    :       0.05          6          0          0          0          0
  intobj           :       0.00          0          0          0          0          0
  gomory           :       3.54          6          0          0          0          0
  strongcg         :       3.95          6          0          0          0          0
  cmir             :       7.43          6          0          0          0          0
  clique           :       0.72          6          0          0         40          0
Pricers            :       Time      Calls       Vars
  problem variables:       0.00          0          0
Branching Rules    :       Time      Calls    Cutoffs    DomReds       Cuts      Conss   Children
  relpscost        :    3697.21         62          0          0          0          0        124
  pscost           :       0.00          0          0          0          0          0          0
  inference        :       0.00          0          0          0          0          0          0
  mostinf          :       0.00          0          0          0          0          0          0
  leastinf         :       0.00          0          0          0          0          0          0
  fullstrong       :       0.00          0          0          0          0          0          0
  allfullstrong    :       0.00          0          0          0          0          0          0
Primal Heuristics  :       Time      Calls      Found
  LP solutions     :       0.00          -          0
  pseudo solutions :       0.00          -          0
  coefdiving       :       0.00          0          0
  pscostdiving     :       0.00          0          0
  fracdiving       :       0.00          0          0
  objpscostdiving  :       0.00          0          0
  rootsoldiving    :       0.00          0          0
  linesearchdiving :       0.00          0          0
  guideddiving     :       0.00          0          0
  crossover        :       0.00          0          0
  feaspump         :     178.33          1          0
  simplerounding   :       0.70         68          0
  rounding         :       2.38         68          0
  shifting         :       2.07         13          0
  fixandinfer      :       0.00          0          0
  intdiving        :       0.00          0          0
  octane           :       0.00          0          0
  rins             :       0.00          0          0
  localbranching   :       0.00          0          0
LP                 :       Time      Calls Iterations  Iter/call   Iter/sec
  primal LP        :       0.08          0          0       0.00       0.00
  dual LP          :    3155.64         68     211439    3109.40      67.00
  barrier LP       :       0.00          0          0       0.00          -
  diving/probing LP:     178.27          1      10000   10000.00      56.09
  strong branching :    3697.14        247     243374     985.32      65.83
    (at root node) :          -         32      31002     968.81          -
  conflict analysis:       0.00          0          0       0.00          -
B&B Tree           :
  number of runs   :          1
  nodes            :         62
  nodes (total)    :         62
  nodes left       :         63
  max depth        :         61
  max depth (total):         61
  backtracks       :          0 (0.0%)
  delayed cutoffs  :          0
  repropagations   :          0 (0 domain reductions, 0 cutoffs)
  avg switch length:       1.00
  switching time   :       0.23
Solution           :
  Solutions found  :          0 (0 improvements)
  Primal Bound     :          -
  Dual Bound       : +4.11000000000001e+02
  Gap              :   infinite
  Root Dual Bound  : +4.11000000000001e+02
